&GLOBAL
  PROJECT benzo_pm6_B1
  RUN_TYPE MD
  PRINT_LEVEL SILENT
&END GLOBAL

!&EXT_RESTART
!RESTART_FILE_NAME Aldol_pm6_R-1.restart
!&END

&MOTION
  &MD
    ENSEMBLE NVT
    STEPS 1000000
    TIMESTEP 0.5
    TEMPERATURE 300
   &THERMOSTAT
        &CSVR
        TIMECON 100
        &END
   &END THERMOSTAT
  &END MD
  &PRINT
     &VELOCITIES OFF
     &END
     &FORCES
      &EACH
         MD 4000
      &END
     &END
     &TRAJECTORY
      &EACH
         MD 20
      &END
     &END
     &RESTART
      &EACH
          MD 1000
      &END
     &END
     &RESTART_HISTORY
       &EACH
          MD 50000
       &END
     &END
  &END PRINT

 &FREE_ENERGY
    &METADYN
      USE_PLUMED .TRUE.
      PLUMED_INPUT_FILE ../plumed.dat
    &END METADYN
  &END FREE_ENERGY

&END MOTION

&FORCE_EVAL
  METHOD Quickstep
  &DFT
    &QS
      METHOD PM6
    &END QS
    &SCF
    SCF_GUESS ATOMIC
 #   SCF_GUESS RESTART
    &END SCF
  &END DFT
  &SUBSYS
    &CELL
      ABC 15.0 15.0 15.0
      PERIODIC NONE
    &END CELL
    &COORD
    C       -1.6159617316      0.4158584223     -0.0087698998                 
    C       -0.9432916592      1.5823187927      0.0093477769                 
    C        0.5637099885      1.5983529624      0.0104407126                 
    C        1.2624844073      0.4467711128     -0.0067518748                 
    C        0.5791793509     -0.8681115744     -0.0271906076                 
    C       -0.9018220771     -0.8749016233     -0.0280349093                 
    H       -2.7029850225      0.4166405385     -0.0093641857                 
    H        2.3489316427      0.4815828826     -0.0056176905                 
    N       -1.7006265634      2.7823301290      0.0271448980                 
    H        0.8616530258      3.6325418971      0.0417691133                 
    H       -1.2835459992      3.7212932170      0.0415457321                 
    N        1.2613031345     -1.9631035239     -0.0435869281                 
    H        2.2920690117     -1.9435233151     -0.0427807077                 
    H        0.7964637802     -2.8828221571     -0.0578815934                 
    O        1.2640432274      2.7562391457      0.0285303735                 
    O       -1.5315956217     -1.9214909421     -0.0442910969 
    &END COORD
  &END SUBSYS
&END FORCE_EVAL

