&GLOBAL
  PROJECT benzo_pm6_B2
  RUN_TYPE MD
  PRINT_LEVEL SILENT
&END GLOBAL

!&EXT_RESTART
!RESTART_FILE_NAME Aldol_pm6_R-1.restart
!&END

&MOTION
  &MD
    ENSEMBLE NVT
    STEPS 1000000
    TIMESTEP 0.5
    TEMPERATURE 300
   &THERMOSTAT
        &CSVR
        TIMECON 100
        &END
   &END THERMOSTAT
  &END MD
  &PRINT
     &VELOCITIES OFF
     &END
     &FORCES
      &EACH
         MD 4000
      &END
     &END
     &TRAJECTORY
      &EACH
         MD 20
      &END
     &END
     &RESTART
      &EACH
          MD 1000
      &END
     &END
     &RESTART_HISTORY
       &EACH
          MD 50000
       &END
     &END
  &END PRINT

 &FREE_ENERGY
    &METADYN
      USE_PLUMED .TRUE.
      PLUMED_INPUT_FILE ../plumed.dat
    &END METADYN
  &END FREE_ENERGY

&END MOTION

&FORCE_EVAL
  METHOD Quickstep
  &DFT
    &QS
      METHOD PM6
    &END QS
    &SCF
    SCF_GUESS ATOMIC
 #   SCF_GUESS RESTART
    &END SCF
  &END DFT
  &SUBSYS
    &CELL
      ABC 15.0 15.0 15.0
      PERIODIC NONE
    &END CELL
    &COORD
    C       -1.6433037405      0.4739098708     -0.0176162963                 
    C       -0.9724853256      1.6368741258      0.0096549888                 
    C        0.5178130794      1.6301544207      0.0415534073                 
    C        1.2597452721      0.3452061660      0.0068240035                 
    C        0.6058342178     -0.8271327530     -0.0122205829                 
    C       -0.9040195444     -0.8344710959      0.0411856784                 
    H       -2.7289822073      0.4629343297     -0.0538062723                 
    H        2.3469445934      0.3622823926     -0.0114045265                 
    N       -1.6871482579      2.8660675795      0.0037641329                 
    H       -2.7182400802      2.8769394750     -0.0055581082                 
    H       -1.1886200382      3.7660370521      0.0311932493                 
    N        1.3408770145     -2.0373467890     -0.0601484992                 
    H       -2.3957559565     -2.0210134195      0.2409619623                 
    H        0.8723705898     -2.9539391582     -0.0667328671                 
    O        1.1382693682      2.6796759015      0.0647575606                 
    O       -1.5929225299     -1.9890936594     -0.3430307240 
    &END COORD
  &END SUBSYS
&END FORCE_EVAL

