&GLOBAL
  PROJECT benzo_pm6_A
  RUN_TYPE MD
  PRINT_LEVEL SILENT
&END GLOBAL

!&EXT_RESTART
!RESTART_FILE_NAME Aldol_pm6_R-1.restart
!&END

&MOTION
  &MD
    ENSEMBLE NVT
    STEPS 1000000
    TIMESTEP 0.5
    TEMPERATURE 300
   &THERMOSTAT
        &CSVR
        TIMECON 100
        &END
   &END THERMOSTAT
  &END MD
  &PRINT
     &VELOCITIES OFF
     &END
     &FORCES
      &EACH
         MD 4000
      &END
     &END
     &TRAJECTORY
      &EACH
         MD 20
      &END
     &END
     &RESTART
      &EACH
          MD 1000
      &END
     &END
     &RESTART_HISTORY
       &EACH
          MD 50000
       &END
     &END
  &END PRINT

 &FREE_ENERGY
    &METADYN
      USE_PLUMED .TRUE.
      PLUMED_INPUT_FILE ../plumed.dat
    &END METADYN
  &END FREE_ENERGY

&END MOTION

&FORCE_EVAL
  METHOD Quickstep
  &DFT
    &QS
      METHOD PM6
    &END QS
    &SCF
    SCF_GUESS ATOMIC
 #   SCF_GUESS RESTART
    &END SCF
  &END DFT
  &SUBSYS
    &CELL
      ABC 15.0 15.0 15.0
      PERIODIC NONE
    &END CELL
    &COORD
  C       -1.6594345488      0.4112217656     -0.0088539387                 
  C       -1.0170667958      1.5940840568      0.0086756527                 
  C        0.4706529829      1.6187014413      0.0092634168                 
  C        1.2296227516      0.3471518157     -0.0093688198                 
  C        0.5872550192     -0.8357104423     -0.0269007204                 
  C       -0.9004647709     -0.8603279507     -0.0274810842                 
  H       -2.7455821489      0.3785905729     -0.0094985254                 
  H        2.3157703480      0.3797830846     -0.0087284808                 
  N       -1.7580990492      2.8070459428      0.0264381008                 
  H       -2.7888819523      2.7977945522      0.0261420935                 
  H       -1.2774518265      3.7179769354      0.0399329412                 
  N        1.3282873403     -2.0486721024     -0.0446757847                 
  H        2.3590702472     -2.0394204339     -0.0443926053                 
  H        0.8476401977     -2.9596030274     -0.0581778548                 
  O        1.0734582649      2.6805281984      0.0250069578                 
  O       -1.5032700444     -1.9221547954     -0.0432191493  
    &END COORD
  &END SUBSYS
&END FORCE_EVAL

